c "769598.clq"
p edge 251 3760
e 1 17
e 1 18
e 1 19
e 1 20
e 1 21
e 1 22
e 1 23
e 1 24
e 1 25
e 1 29
e 1 31
e 1 32
e 1 34
e 1 35
e 1 36
e 1 38
e 1 39
e 1 42
e 1 43
e 1 44
e 1 46
e 1 47
e 1 50
e 1 57
e 1 59
e 1 62
e 1 64
e 1 68
e 1 77
e 1 80
e 1 81
e 1 93
e 1 102
e 1 103
e 1 106
e 1 125
e 1 129
e 1 131
e 1 132
e 1 143
e 1 147
e 1 149
e 1 166
e 1 179
e 1 193
e 1 198
e 1 208
e 1 213
e 1 219
e 1 223
e 1 233
e 1 234
e 1 239
e 1 242
e 1 249
e 2 17
e 2 18
e 2 20
e 2 22
e 2 23
e 2 24
e 2 27
e 2 29
e 2 33
e 2 34
e 2 37
e 2 41
e 2 44
e 2 49
e 2 52
e 2 56
e 2 59
e 2 61
e 2 65
e 2 100
e 2 103
e 2 105
e 2 116
e 2 118
e 2 121
e 2 123
e 2 125
e 2 130
e 2 132
e 2 140
e 2 159
e 2 166
e 2 167
e 2 172
e 2 173
e 2 181
e 2 231
e 3 17
e 3 18
e 3 19
e 3 20
e 3 22
e 3 24
e 3 25
e 3 27
e 3 28
e 3 34
e 3 36
e 3 54
e 3 79
e 3 80
e 3 110
e 3 129
e 3 160
e 3 177
e 4 17
e 4 18
e 4 19
e 4 20
e 4 22
e 4 23
e 4 25
e 4 26
e 4 28
e 4 32
e 4 40
e 4 44
e 4 52
e 4 55
e 4 60
e 4 70
e 4 72
e 4 73
e 4 75
e 4 77
e 4 85
e 4 87
e 4 97
e 4 103
e 4 108
e 4 110
e 4 117
e 4 128
e 4 129
e 4 141
e 4 144
e 4 148
e 4 151
e 4 169
e 4 178
e 4 180
e 4 216
e 4 226
e 4 245
e 4 251
e 5 17
e 5 18
e 5 19
e 5 31
e 5 33
e 5 34
e 5 35
e 5 37
e 5 40
e 5 46
e 5 72
e 5 79
e 5 80
e 5 85
e 5 106
e 5 117
e 5 118
e 5 128
e 5 132
e 5 150
e 5 163
e 5 168
e 5 192
e 5 195
e 5 199
e 5 223
e 5 224
e 5 228
e 5 245
e 6 17
e 6 18
e 6 19
e 6 21
e 6 22
e 6 24
e 6 25
e 6 26
e 6 28
e 6 30
e 6 31
e 6 32
e 6 35
e 6 38
e 6 42
e 6 46
e 6 47
e 6 48
e 6 50
e 6 54
e 6 55
e 6 56
e 6 58
e 6 59
e 6 60
e 6 65
e 6 66
e 6 69
e 6 70
e 6 77
e 6 79
e 6 80
e 6 87
e 6 90
e 6 95
e 6 105
e 6 106
e 6 107
e 6 112
e 6 118
e 6 119
e 6 120
e 6 122
e 6 128
e 6 131
e 6 136
e 6 157
e 6 163
e 6 164
e 6 165
e 6 169
e 6 171
e 6 172
e 6 173
e 6 177
e 6 180
e 6 186
e 6 199
e 6 231
e 6 235
e 6 251
e 7 17
e 7 18
e 7 19
e 7 20
e 7 21
e 7 23
e 7 24
e 7 27
e 7 28
e 7 36
e 7 38
e 7 39
e 7 42
e 7 53
e 7 54
e 7 55
e 7 60
e 7 71
e 7 78
e 7 80
e 7 82
e 7 95
e 7 99
e 7 107
e 7 112
e 7 126
e 7 135
e 7 145
e 7 174
e 7 176
e 7 179
e 7 195
e 7 201
e 7 203
e 7 207
e 7 224
e 7 226
e 7 238
e 7 245
e 8 17
e 8 18
e 8 19
e 8 20
e 8 21
e 8 23
e 8 24
e 8 26
e 8 30
e 8 33
e 8 34
e 8 41
e 8 45
e 8 48
e 8 51
e 8 52
e 8 54
e 8 56
e 8 58
e 8 60
e 8 61
e 8 94
e 8 96
e 8 106
e 8 109
e 8 115
e 8 116
e 8 128
e 8 129
e 8 140
e 8 141
e 8 147
e 8 150
e 8 165
e 8 181
e 8 209
e 8 214
e 8 216
e 8 250
e 9 17
e 9 20
e 9 21
e 9 24
e 9 27
e 9 30
e 9 33
e 9 43
e 9 45
e 9 47
e 9 58
e 9 77
e 9 145
e 9 183
e 9 202
e 9 235
e 10 17
e 10 18
e 10 19
e 10 20
e 10 21
e 10 22
e 10 25
e 10 26
e 10 29
e 10 30
e 10 31
e 10 32
e 10 35
e 10 37
e 10 40
e 10 42
e 10 45
e 10 46
e 10 48
e 10 50
e 10 52
e 10 55
e 10 58
e 10 59
e 10 61
e 10 62
e 10 63
e 10 68
e 10 69
e 10 70
e 10 72
e 10 115
e 10 119
e 10 122
e 10 124
e 10 129
e 10 134
e 10 135
e 10 136
e 10 139
e 10 142
e 10 148
e 10 151
e 10 164
e 10 168
e 10 176
e 10 182
e 10 186
e 10 189
e 10 190
e 10 198
e 10 201
e 10 203
e 10 207
e 10 210
e 10 217
e 10 224
e 10 227
e 10 237
e 10 238
e 10 241
e 10 244
e 10 251
e 11 17
e 11 18
e 11 19
e 11 20
e 11 21
e 11 22
e 11 23
e 11 24
e 11 25
e 11 26
e 11 27
e 11 28
e 11 29
e 11 31
e 11 33
e 11 36
e 11 38
e 11 39
e 11 40
e 11 43
e 11 45
e 11 46
e 11 48
e 11 49
e 11 51
e 11 53
e 11 62
e 11 68
e 11 75
e 11 80
e 11 83
e 11 86
e 11 100
e 11 108
e 11 126
e 11 133
e 11 141
e 11 142
e 11 144
e 11 148
e 11 152
e 11 156
e 11 163
e 11 164
e 11 172
e 11 186
e 11 220
e 11 230
e 12 17
e 12 18
e 12 19
e 12 20
e 12 21
e 12 22
e 12 23
e 12 25
e 12 27
e 12 28
e 12 29
e 12 32
e 12 36
e 12 37
e 12 39
e 12 41
e 12 58
e 12 59
e 12 64
e 12 92
e 12 97
e 12 103
e 12 114
e 12 115
e 12 148
e 12 149
e 12 150
e 12 152
e 12 155
e 12 176
e 12 177
e 12 187
e 12 195
e 12 197
e 12 215
e 12 226
e 12 227
e 12 231
e 12 233
e 12 243
e 12 245
e 13 17
e 13 18
e 13 19
e 13 20
e 13 21
e 13 22
e 13 26
e 13 30
e 13 34
e 13 35
e 13 36
e 13 38
e 13 40
e 13 44
e 13 46
e 13 48
e 13 49
e 13 53
e 13 55
e 13 58
e 13 63
e 13 67
e 13 73
e 13 88
e 13 100
e 13 105
e 13 108
e 13 110
e 13 113
e 13 114
e 13 115
e 13 116
e 13 118
e 13 122
e 13 124
e 13 125
e 13 126
e 13 139
e 13 145
e 13 150
e 13 151
e 13 155
e 13 182
e 13 191
e 13 194
e 13 205
e 13 209
e 13 229
e 13 231
e 13 237
e 13 250
e 14 17
e 14 18
e 14 19
e 14 20
e 14 21
e 14 22
e 14 23
e 14 25
e 14 27
e 14 28
e 14 33
e 14 37
e 14 39
e 14 43
e 14 53
e 14 62
e 14 69
e 14 74
e 14 75
e 14 91
e 14 97
e 14 100
e 14 127
e 14 135
e 14 185
e 14 248
e 15 17
e 15 18
e 15 19
e 15 20
e 15 21
e 15 23
e 15 26
e 15 39
e 15 41
e 15 43
e 15 52
e 15 63
e 15 85
e 15 88
e 15 91
e 15 95
e 15 109
e 15 138
e 15 173
e 15 174
e 15 175
e 15 177
e 15 182
e 15 189
e 15 230
e 15 236
e 15 250
e 16 17
e 16 18
e 16 19
e 16 21
e 16 22
e 16 23
e 16 24
e 16 26
e 16 27
e 16 29
e 16 30
e 16 31
e 16 35
e 16 40
e 16 41
e 16 42
e 16 43
e 16 45
e 16 48
e 16 51
e 16 52
e 16 57
e 16 58
e 16 63
e 16 66
e 16 82
e 16 86
e 16 95
e 16 114
e 16 123
e 16 127
e 16 129
e 16 133
e 16 135
e 16 136
e 16 145
e 16 178
e 16 181
e 16 190
e 16 195
e 16 198
e 16 225
e 16 233
e 16 250
e 17 18
e 17 19
e 17 20
e 17 21
e 17 22
e 17 23
e 17 24
e 17 25
e 17 26
e 17 27
e 17 28
e 17 29
e 17 30
e 17 31
e 17 33
e 17 37
e 17 38
e 17 40
e 17 41
e 17 44
e 17 45
e 17 47
e 17 48
e 17 49
e 17 50
e 17 51
e 17 53
e 17 54
e 17 55
e 17 56
e 17 57
e 17 64
e 17 66
e 17 68
e 17 71
e 17 74
e 17 75
e 17 76
e 17 84
e 17 86
e 17 89
e 17 96
e 17 98
e 17 111
e 17 113
e 17 114
e 17 117
e 17 119
e 17 120
e 17 125
e 17 128
e 17 133
e 17 135
e 17 136
e 17 139
e 17 140
e 17 150
e 17 152
e 17 156
e 17 159
e 17 160
e 17 162
e 17 166
e 17 170
e 17 177
e 17 178
e 17 180
e 17 182
e 17 183
e 17 194
e 17 199
e 17 205
e 17 206
e 17 208
e 17 221
e 17 222
e 17 238
e 17 247
e 17 248
e 18 19
e 18 20
e 18 21
e 18 22
e 18 23
e 18 24
e 18 25
e 18 26
e 18 27
e 18 28
e 18 29
e 18 30
e 18 31
e 18 32
e 18 33
e 18 34
e 18 37
e 18 38
e 18 40
e 18 43
e 18 44
e 18 45
e 18 46
e 18 48
e 18 49
e 18 53
e 18 54
e 18 57
e 18 60
e 18 67
e 18 69
e 18 70
e 18 83
e 18 85
e 18 86
e 18 87
e 18 88
e 18 89
e 18 91
e 18 92
e 18 93
e 18 94
e 18 99
e 18 100
e 18 108
e 18 113
e 18 116
e 18 119
e 18 121
e 18 124
e 18 132
e 18 133
e 18 135
e 18 143
e 18 144
e 18 152
e 18 153
e 18 160
e 18 161
e 18 175
e 18 180
e 18 181
e 18 188
e 18 190
e 18 193
e 18 216
e 18 223
e 18 225
e 18 229
e 18 232
e 18 247
e 18 248
e 18 249
e 18 251
e 19 20
e 19 21
e 19 22
e 19 23
e 19 24
e 19 25
e 19 26
e 19 27
e 19 28
e 19 30
e 19 31
e 19 32
e 19 33
e 19 35
e 19 37
e 19 38
e 19 40
e 19 41
e 19 44
e 19 45
e 19 46
e 19 49
e 19 50
e 19 51
e 19 55
e 19 58
e 19 60
e 19 61
e 19 64
e 19 66
e 19 67
e 19 69
e 19 71
e 19 74
e 19 76
e 19 81
e 19 82
e 19 87
e 19 94
e 19 99
e 19 101
e 19 104
e 19 111
e 19 112
e 19 114
e 19 120
e 19 121
e 19 123
e 19 129
e 19 131
e 19 132
e 19 133
e 19 140
e 19 142
e 19 147
e 19 151
e 19 153
e 19 155
e 19 158
e 19 160
e 19 162
e 19 163
e 19 166
e 19 172
e 19 174
e 19 178
e 19 188
e 19 192
e 19 193
e 19 197
e 19 206
e 19 207
e 19 217
e 19 224
e 19 228
e 19 232
e 19 235
e 19 240
e 19 245
e 19 249
e 20 21
e 20 22
e 20 23
e 20 24
e 20 25
e 20 27
e 20 28
e 20 29
e 20 30
e 20 33
e 20 34
e 20 35
e 20 36
e 20 37
e 20 42
e 20 43
e 20 44
e 20 45
e 20 46
e 20 47
e 20 49
e 20 53
e 20 54
e 20 55
e 20 57
e 20 58
e 20 59
e 20 60
e 20 61
e 20 63
e 20 64
e 20 65
e 20 67
e 20 71
e 20 73
e 20 74
e 20 78
e 20 84
e 20 85
e 20 86
e 20 88
e 20 89
e 20 90
e 20 97
e 20 101
e 20 102
e 20 105
e 20 106
e 20 107
e 20 108
e 20 110
e 20 111
e 20 114
e 20 119
e 20 122
e 20 123
e 20 126
e 20 131
e 20 137
e 20 138
e 20 141
e 20 143
e 20 144
e 20 154
e 20 155
e 20 157
e 20 158
e 20 161
e 20 171
e 20 174
e 20 176
e 20 181
e 20 186
e 20 189
e 20 197
e 20 205
e 20 206
e 20 207
e 20 208
e 20 210
e 20 211
e 20 214
e 20 215
e 20 217
e 20 218
e 20 222
e 20 224
e 20 226
e 20 230
e 20 233
e 20 236
e 20 237
e 20 241
e 20 243
e 20 247
e 21 22
e 21 23
e 21 24
e 21 25
e 21 26
e 21 28
e 21 29
e 21 31
e 21 32
e 21 34
e 21 35
e 21 36
e 21 37
e 21 39
e 21 41
e 21 43
e 21 44
e 21 45
e 21 50
e 21 51
e 21 53
e 21 55
e 21 57
e 21 58
e 21 60
e 21 65
e 21 66
e 21 68
e 21 71
e 21 72
e 21 73
e 21 75
e 21 76
e 21 79
e 21 83
e 21 86
e 21 87
e 21 91
e 21 93
e 21 99
e 21 102
e 21 104
e 21 105
e 21 107
e 21 109
e 21 110
e 21 117
e 21 118
e 21 133
e 21 134
e 21 137
e 21 141
e 21 154
e 21 163
e 21 164
e 21 176
e 21 186
e 21 203
e 21 205
e 21 214
e 21 219
e 21 223
e 21 224
e 21 236
e 21 238
e 21 239
e 21 240
e 21 241
e 21 243
e 21 246
e 22 23
e 22 24
e 22 25
e 22 26
e 22 27
e 22 28
e 22 29
e 22 30
e 22 31
e 22 32
e 22 33
e 22 34
e 22 35
e 22 36
e 22 38
e 22 39
e 22 42
e 22 45
e 22 46
e 22 49
e 22 51
e 22 52
e 22 55
e 22 56
e 22 59
e 22 62
e 22 64
e 22 66
e 22 76
e 22 79
e 22 81
e 22 84
e 22 88
e 22 92
e 22 94
e 22 98
e 22 100
e 22 102
e 22 103
e 22 109
e 22 110
e 22 118
e 22 120
e 22 125
e 22 126
e 22 129
e 22 131
e 22 135
e 22 137
e 22 139
e 22 140
e 22 147
e 22 149
e 22 152
e 22 155
e 22 163
e 22 164
e 22 173
e 22 175
e 22 185
e 22 186
e 22 188
e 22 189
e 22 192
e 22 193
e 22 199
e 22 204
e 22 206
e 22 207
e 22 213
e 22 218
e 22 221
e 22 231
e 22 237
e 22 238
e 22 249
e 23 24
e 23 25
e 23 26
e 23 27
e 23 29
e 23 30
e 23 32
e 23 34
e 23 35
e 23 39
e 23 42
e 23 46
e 23 50
e 23 54
e 23 57
e 23 58
e 23 62
e 23 66
e 23 67
e 23 68
e 23 69
e 23 70
e 23 71
e 23 72
e 23 78
e 23 79
e 23 83
e 23 89
e 23 96
e 23 101
e 23 113
e 23 116
e 23 120
e 23 122
e 23 123
e 23 130
e 23 131
e 23 136
e 23 137
e 23 138
e 23 141
e 23 151
e 23 157
e 23 164
e 23 167
e 23 175
e 23 177
e 23 204
e 23 209
e 23 210
e 23 219
e 23 225
e 23 236
e 23 237
e 23 242
e 23 243
e 23 244
e 23 246
e 23 249
e 24 25
e 24 26
e 24 27
e 24 28
e 24 29
e 24 30
e 24 33
e 24 34
e 24 35
e 24 38
e 24 40
e 24 44
e 24 45
e 24 47
e 24 48
e 24 50
e 24 56
e 24 58
e 24 70
e 24 76
e 24 78
e 24 81
e 24 82
e 24 84
e 24 90
e 24 92
e 24 93
e 24 94
e 24 96
e 24 97
e 24 104
e 24 106
e 24 107
e 24 111
e 24 113
e 24 120
e 24 122
e 24 125
e 24 131
e 24 135
e 24 137
e 24 139
e 24 144
e 24 147
e 24 151
e 24 159
e 24 161
e 24 166
e 24 167
e 24 171
e 24 176
e 24 185
e 24 187
e 24 194
e 24 196
e 24 198
e 24 207
e 24 210
e 24 213
e 24 217
e 24 219
e 24 222
e 24 236
e 24 237
e 24 245
e 25 26
e 25 27
e 25 28
e 25 29
e 25 31
e 25 32
e 25 33
e 25 34
e 25 36
e 25 38
e 25 45
e 25 47
e 25 50
e 25 52
e 25 53
e 25 57
e 25 59
e 25 71
e 25 72
e 25 73
e 25 76
e 25 77
e 25 80
e 25 81
e 25 87
e 25 92
e 25 93
e 25 95
e 25 99
e 25 100
e 25 104
e 25 110
e 25 112
e 25 116
e 25 118
e 25 123
e 25 124
e 25 134
e 25 138
e 25 144
e 25 147
e 25 149
e 25 154
e 25 157
e 25 160
e 25 164
e 25 165
e 25 179
e 25 184
e 25 186
e 25 191
e 25 197
e 25 204
e 25 206
e 25 210
e 25 214
e 25 225
e 25 232
e 25 236
e 25 239
e 25 244
e 25 247
e 25 250
e 25 251
e 26 28
e 26 30
e 26 31
e 26 32
e 26 35
e 26 37
e 26 38
e 26 39
e 26 44
e 26 46
e 26 47
e 26 50
e 26 55
e 26 56
e 26 57
e 26 61
e 26 62
e 26 63
e 26 69
e 26 72
e 26 75
e 26 76
e 26 80
e 26 81
e 26 83
e 26 88
e 26 91
e 26 96
e 26 97
e 26 98
e 26 109
e 26 115
e 26 116
e 26 118
e 26 120
e 26 123
e 26 124
e 26 127
e 26 130
e 26 135
e 26 141
e 26 143
e 26 144
e 26 150
e 26 153
e 26 160
e 26 163
e 26 164
e 26 167
e 26 169
e 26 181
e 26 189
e 26 211
e 26 217
e 26 226
e 26 227
e 27 29
e 27 30
e 27 31
e 27 32
e 27 35
e 27 36
e 27 37
e 27 41
e 27 42
e 27 44
e 27 47
e 27 52
e 27 56
e 27 57
e 27 62
e 27 73
e 27 76
e 27 78
e 27 79
e 27 82
e 27 83
e 27 94
e 27 96
e 27 98
e 27 99
e 27 102
e 27 106
e 27 121
e 27 131
e 27 146
e 27 155
e 27 157
e 27 161
e 27 167
e 27 170
e 27 171
e 27 188
e 27 195
e 27 205
e 27 212
e 27 217
e 27 225
e 27 232
e 27 234
e 28 29
e 28 30
e 28 32
e 28 35
e 28 36
e 28 37
e 28 39
e 28 40
e 28 41
e 28 42
e 28 49
e 28 51
e 28 53
e 28 54
e 28 59
e 28 66
e 28 67
e 28 68
e 28 70
e 28 73
e 28 80
e 28 81
e 28 89
e 28 90
e 28 104
e 28 120
e 28 125
e 28 131
e 28 134
e 28 159
e 28 160
e 28 167
e 28 178
e 28 182
e 28 188
e 28 196
e 28 200
e 28 217
e 28 227
e 28 236
e 28 239
e 28 242
e 28 244
e 28 249
e 29 31
e 29 32
e 29 36
e 29 38
e 29 39
e 29 40
e 29 41
e 29 45
e 29 49
e 29 59
e 29 60
e 29 61
e 29 64
e 29 67
e 29 75
e 29 86
e 29 88
e 29 94
e 29 97
e 29 100
e 29 101
e 29 113
e 29 120
e 29 121
e 29 122
e 29 138
e 29 139
e 29 148
e 29 159
e 29 162
e 29 168
e 29 169
e 29 170
e 29 185
e 29 188
e 29 190
e 29 194
e 29 195
e 29 200
e 29 224
e 29 234
e 29 247
e 29 248
e 29 249
e 30 31
e 30 33
e 30 34
e 30 37
e 30 40
e 30 44
e 30 46
e 30 51
e 30 52
e 30 59
e 30 63
e 30 64
e 30 66
e 30 69
e 30 78
e 30 84
e 30 91
e 30 98
e 30 109
e 30 113
e 30 115
e 30 124
e 30 125
e 30 129
e 30 136
e 30 140
e 30 146
e 30 159
e 30 162
e 30 168
e 30 176
e 30 181
e 30 187
e 30 189
e 30 193
e 30 200
e 30 204
e 30 226
e 30 227
e 30 239
e 30 240
e 30 246
e 30 251
e 31 32
e 31 33
e 31 35
e 31 36
e 31 38
e 31 39
e 31 42
e 31 43
e 31 46
e 31 47
e 31 48
e 31 50
e 31 53
e 31 56
e 31 60
e 31 62
e 31 65
e 31 73
e 31 74
e 31 75
e 31 78
e 31 80
e 31 81
e 31 82
e 31 90
e 31 94
e 31 97
e 31 99
e 31 101
e 31 102
e 31 104
e 31 108
e 31 109
e 31 110
e 31 111
e 31 112
e 31 113
e 31 115
e 31 123
e 31 127
e 31 128
e 31 130
e 31 135
e 31 145
e 31 149
e 31 154
e 31 156
e 31 164
e 31 171
e 31 175
e 31 177
e 31 186
e 31 205
e 31 208
e 31 213
e 31 218
e 31 239
e 31 244
e 31 250
e 32 33
e 32 34
e 32 37
e 32 39
e 32 41
e 32 42
e 32 43
e 32 44
e 32 48
e 32 49
e 32 50
e 32 54
e 32 55
e 32 56
e 32 58
e 32 67
e 32 70
e 32 71
e 32 74
e 32 76
e 32 87
e 32 89
e 32 90
e 32 95
e 32 97
e 32 99
e 32 101
e 32 109
e 32 116
e 32 121
e 32 125
e 32 132
e 32 133
e 32 136
e 32 141
e 32 145
e 32 150
e 32 154
e 32 155
e 32 191
e 32 193
e 32 194
e 32 198
e 32 209
e 32 211
e 32 216
e 32 221
e 32 233
e 32 238
e 32 239
e 32 242
e 32 244
e 32 246
e 32 251
e 33 34
e 33 37
e 33 39
e 33 40
e 33 41
e 33 42
e 33 43
e 33 45
e 33 51
e 33 60
e 33 61
e 33 62
e 33 64
e 33 66
e 33 67
e 33 68
e 33 70
e 33 71
e 33 72
e 33 74
e 33 77
e 33 78
e 33 79
e 33 81
e 33 84
e 33 89
e 33 91
e 33 100
e 33 102
e 33 105
e 33 106
e 33 108
e 33 111
e 33 128
e 33 132
e 33 136
e 33 137
e 33 145
e 33 159
e 33 161
e 33 162
e 33 167
e 33 172
e 33 187
e 33 189
e 33 190
e 33 198
e 33 204
e 33 205
e 33 211
e 33 212
e 33 213
e 33 233
e 33 244
e 33 250
e 33 251
e 34 36
e 34 39
e 34 40
e 34 41
e 34 43
e 34 47
e 34 50
e 34 52
e 34 56
e 34 57
e 34 64
e 34 66
e 34 67
e 34 68
e 34 73
e 34 77
e 34 78
e 34 79
e 34 88
e 34 92
e 34 93
e 34 96
e 34 97
e 34 98
e 34 101
e 34 111
e 34 114
e 34 120
e 34 122
e 34 127
e 34 130
e 34 133
e 34 134
e 34 142
e 34 157
e 34 158
e 34 169
e 34 176
e 34 184
e 34 199
e 34 208
e 34 214
e 34 218
e 34 220
e 34 231
e 34 235
e 34 241
e 34 242
e 34 248
e 35 36
e 35 43
e 35 48
e 35 49
e 35 52
e 35 55
e 35 59
e 35 65
e 35 69
e 35 71
e 35 74
e 35 81
e 35 83
e 35 86
e 35 100
e 35 131
e 35 134
e 35 137
e 35 146
e 35 151
e 35 154
e 35 156
e 35 167
e 35 173
e 35 179
e 35 183
e 35 200
e 35 204
e 35 209
e 35 213
e 35 218
e 35 219
e 35 227
e 35 228
e 35 233
e 35 240
e 35 241
e 36 38
e 36 42
e 36 47
e 36 52
e 36 53
e 36 55
e 36 57
e 36 64
e 36 67
e 36 86
e 36 91
e 36 94
e 36 98
e 36 102
e 36 120
e 36 142
e 36 143
e 36 148
e 36 153
e 36 161
e 36 162
e 36 172
e 36 182
e 36 189
e 36 206
e 36 210
e 36 212
e 36 214
e 36 233
e 37 38
e 37 40
e 37 42
e 37 44
e 37 46
e 37 47
e 37 48
e 37 49
e 37 50
e 37 62
e 37 65
e 37 67
e 37 70
e 37 74
e 37 75
e 37 80
e 37 85
e 37 89
e 37 90
e 37 91
e 37 93
e 37 96
e 37 97
e 37 102
e 37 112
e 37 113
e 37 115
e 37 119
e 37 121
e 37 125
e 37 130
e 37 146
e 37 157
e 37 158
e 37 159
e 37 165
e 37 170
e 37 182
e 37 190
e 37 199
e 37 201
e 37 202
e 37 203
e 37 212
e 37 220
e 37 221
e 37 222
e 37 229
e 37 247
e 38 41
e 38 43
e 38 44
e 38 47
e 38 51
e 38 56
e 38 62
e 38 70
e 38 79
e 38 80
e 38 82
e 38 83
e 38 85
e 38 89
e 38 90
e 38 94
e 38 104
e 38 107
e 38 109
e 38 114
e 38 117
e 38 127
e 38 129
e 38 133
e 38 136
e 38 141
e 38 146
e 38 150
e 38 152
e 38 169
e 38 180
e 38 194
e 38 199
e 38 201
e 38 212
e 38 231
e 38 246
e 39 49
e 39 51
e 39 60
e 39 61
e 39 63
e 39 72
e 39 74
e 39 91
e 39 109
e 39 110
e 39 113
e 39 117
e 39 134
e 39 142
e 39 143
e 39 160
e 39 163
e 39 173
e 39 180
e 39 185
e 39 207
e 39 212
e 39 227
e 39 234
e 39 235
e 39 247
e 40 41
e 40 42
e 40 45
e 40 48
e 40 52
e 40 54
e 40 58
e 40 62
e 40 64
e 40 69
e 40 75
e 40 79
e 40 82
e 40 83
e 40 84
e 40 94
e 40 98
e 40 100
e 40 103
e 40 106
e 40 107
e 40 118
e 40 128
e 40 131
e 40 137
e 40 138
e 40 154
e 40 158
e 40 167
e 40 168
e 40 172
e 40 173
e 40 177
e 40 185
e 40 188
e 40 200
e 40 213
e 40 216
e 40 233
e 40 236
e 40 245
e 40 250
e 41 48
e 41 56
e 41 60
e 41 63
e 41 65
e 41 66
e 41 68
e 41 72
e 41 73
e 41 79
e 41 80
e 41 81
e 41 92
e 41 96
e 41 98
e 41 99
e 41 103
e 41 104
e 41 111
e 41 112
e 41 123
e 41 129
e 41 135
e 41 136
e 41 162
e 41 165
e 41 166
e 41 189
e 41 218
e 41 230
e 41 237
e 42 43
e 42 51
e 42 52
e 42 54
e 42 65
e 42 70
e 42 82
e 42 131
e 42 134
e 42 142
e 42 164
e 42 195
e 42 210
e 42 237
e 42 245
e 42 247
e 43 50
e 43 51
e 43 56
e 43 58
e 43 59
e 43 62
e 43 63
e 43 64
e 43 65
e 43 68
e 43 71
e 43 76
e 43 78
e 43 85
e 43 88
e 43 90
e 43 92
e 43 93
e 43 99
e 43 102
e 43 105
e 43 108
e 43 137
e 43 142
e 43 149
e 43 150
e 43 163
e 43 174
e 43 179
e 43 183
e 43 184
e 43 192
e 43 195
e 43 202
e 43 211
e 43 235
e 43 239
e 44 46
e 44 47
e 44 48
e 44 49
e 44 51
e 44 53
e 44 58
e 44 59
e 44 61
e 44 63
e 44 65
e 44 71
e 44 75
e 44 76
e 44 95
e 44 96
e 44 104
e 44 114
e 44 115
e 44 119
e 44 129
e 44 134
e 44 140
e 44 147
e 44 157
e 44 163
e 44 164
e 44 165
e 44 167
e 44 168
e 44 181
e 44 183
e 44 184
e 44 190
e 44 194
e 44 204
e 44 215
e 44 219
e 44 226
e 44 228
e 44 241
e 44 242
e 44 243
e 44 244
e 45 49
e 45 52
e 45 54
e 45 55
e 45 57
e 45 62
e 45 67
e 45 69
e 45 75
e 45 93
e 45 106
e 45 107
e 45 110
e 45 119
e 45 125
e 45 133
e 45 138
e 45 147
e 45 154
e 45 156
e 45 175
e 45 192
e 45 201
e 45 204
e 45 223
e 45 250
e 46 47
e 46 50
e 46 55
e 46 59
e 46 60
e 46 61
e 46 69
e 46 70
e 46 71
e 46 74
e 46 77
e 46 85
e 46 86
e 46 87
e 46 89
e 46 96
e 46 97
e 46 98
e 46 106
e 46 110
e 46 114
e 46 116
e 46 117
e 46 127
e 46 140
e 46 149
e 46 155
e 46 156
e 46 160
e 46 174
e 46 178
e 46 179
e 46 184
e 46 189
e 46 192
e 46 193
e 46 200
e 46 202
e 46 205
e 46 218
e 46 219
e 46 222
e 46 225
e 46 235
e 46 236
e 46 243
e 46 244
e 46 247
e 47 53
e 47 54
e 47 61
e 47 63
e 47 68
e 47 72
e 47 74
e 47 83
e 47 87
e 47 99
e 47 112
e 47 115
e 47 117
e 47 126
e 47 128
e 47 130
e 47 155
e 47 192
e 47 209
e 47 212
e 47 223
e 47 239
e 48 61
e 48 63
e 48 66
e 48 69
e 48 71
e 48 76
e 48 81
e 48 82
e 48 86
e 48 87
e 48 88
e 48 91
e 48 92
e 48 98
e 48 103
e 48 108
e 48 113
e 48 130
e 48 140
e 48 142
e 48 156
e 48 166
e 48 171
e 48 176
e 48 181
e 48 196
e 48 222
e 48 227
e 48 229
e 49 51
e 49 53
e 49 54
e 49 57
e 49 61
e 49 73
e 49 79
e 49 84
e 49 92
e 49 93
e 49 105
e 49 113
e 49 116
e 49 119
e 49 121
e 49 123
e 49 134
e 49 137
e 49 145
e 49 153
e 49 163
e 49 173
e 49 183
e 49 199
e 49 200
e 49 214
e 49 220
e 49 224
e 49 225
e 49 230
e 49 231
e 49 248
e 50 53
e 50 54
e 50 57
e 50 64
e 50 69
e 50 70
e 50 72
e 50 78
e 50 80
e 50 81
e 50 86
e 50 90
e 50 93
e 50 98
e 50 104
e 50 105
e 50 107
e 50 108
e 50 111
e 50 115
e 50 116
e 50 119
e 50 124
e 50 132
e 50 140
e 50 141
e 50 145
e 50 146
e 50 148
e 50 149
e 50 166
e 50 168
e 50 169
e 50 170
e 50 183
e 50 187
e 50 195
e 50 202
e 50 207
e 50 209
e 50 215
e 50 216
e 50 218
e 50 219
e 50 221
e 50 230
e 50 242
e 50 250
e 51 57
e 51 64
e 51 80
e 51 81
e 51 83
e 51 88
e 51 90
e 51 96
e 51 103
e 51 107
e 51 112
e 51 128
e 51 132
e 51 139
e 51 146
e 51 161
e 51 162
e 51 163
e 51 166
e 51 184
e 51 194
e 51 202
e 51 223
e 51 226
e 51 237
e 51 249
e 52 56
e 52 67
e 52 68
e 52 75
e 52 76
e 52 77
e 52 78
e 52 83
e 52 92
e 52 95
e 52 101
e 52 126
e 52 144
e 52 165
e 52 175
e 52 176
e 52 185
e 52 196
e 52 201
e 52 241
e 53 56
e 53 61
e 53 63
e 53 73
e 53 77
e 53 78
e 53 79
e 53 83
e 53 88
e 53 91
e 53 99
e 53 103
e 53 107
e 53 110
e 53 114
e 53 121
e 53 130
e 53 132
e 53 139
e 53 148
e 53 159
e 53 160
e 53 161
e 53 166
e 53 167
e 53 170
e 53 187
e 53 188
e 53 196
e 53 197
e 53 198
e 53 215
e 53 220
e 53 221
e 53 230
e 53 241
e 53 247
e 54 64
e 54 79
e 54 85
e 54 105
e 54 123
e 54 124
e 54 126
e 54 131
e 54 133
e 54 142
e 54 149
e 54 153
e 54 180
e 54 190
e 54 208
e 54 216
e 54 219
e 55 63
e 55 66
e 55 74
e 55 78
e 55 84
e 55 102
e 55 116
e 55 118
e 55 126
e 55 142
e 55 156
e 55 162
e 55 183
e 55 196
e 55 197
e 55 203
e 55 210
e 55 220
e 55 223
e 56 60
e 56 65
e 56 68
e 56 69
e 56 72
e 56 82
e 56 84
e 56 87
e 56 89
e 56 92
e 56 101
e 56 104
e 56 106
e 56 111
e 56 120
e 56 134
e 56 139
e 56 147
e 56 148
e 56 163
e 56 180
e 56 184
e 56 188
e 56 198
e 56 211
e 56 218
e 57 59
e 57 60
e 57 65
e 57 84
e 57 89
e 57 92
e 57 93
e 57 114
e 57 118
e 57 122
e 57 144
e 57 153
e 57 169
e 57 173
e 57 181
e 57 199
e 57 201
e 57 204
e 57 211
e 57 227
e 57 245
e 58 70
e 58 75
e 58 82
e 58 83
e 58 84
e 58 86
e 58 89
e 58 109
e 58 111
e 58 116
e 58 124
e 58 132
e 58 139
e 58 153
e 58 155
e 58 178
e 58 193
e 58 197
e 58 199
e 58 218
e 58 232
e 58 238
e 58 240
e 59 62
e 59 65
e 59 72
e 59 74
e 59 76
e 59 81
e 59 82
e 59 98
e 59 109
e 59 113
e 59 142
e 59 160
e 59 170
e 59 173
e 59 182
e 59 183
e 59 189
e 59 200
e 59 208
e 59 210
e 59 231
e 59 243
e 59 246
e 60 61
e 60 63
e 60 68
e 60 71
e 60 73
e 60 88
e 60 97
e 60 104
e 60 120
e 60 124
e 60 130
e 60 147
e 60 148
e 60 158
e 60 172
e 60 188
e 60 199
e 60 211
e 60 219
e 60 223
e 60 234
e 60 239
e 61 66
e 61 67
e 61 72
e 61 75
e 61 76
e 61 78
e 61 85
e 61 91
e 61 96
e 61 105
e 61 123
e 61 134
e 61 143
e 61 144
e 61 145
e 61 151
e 61 162
e 61 166
e 61 167
e 61 168
e 61 169
e 61 186
e 61 196
e 61 206
e 62 66
e 62 77
e 62 85
e 62 87
e 62 90
e 62 99
e 62 100
e 62 101
e 62 112
e 62 126
e 62 146
e 62 147
e 62 148
e 62 154
e 62 179
e 62 184
e 62 190
e 62 192
e 62 194
e 62 200
e 62 202
e 62 208
e 62 209
e 62 220
e 62 234
e 62 241
e 62 249
e 63 65
e 63 69
e 63 70
e 63 73
e 63 75
e 63 79
e 63 82
e 63 84
e 63 89
e 63 126
e 63 129
e 63 140
e 63 143
e 63 149
e 63 153
e 63 173
e 63 179
e 63 184
e 63 185
e 63 198
e 63 201
e 63 203
e 63 210
e 63 225
e 63 248
e 64 65
e 64 68
e 64 72
e 64 90
e 64 93
e 64 95
e 64 100
e 64 103
e 64 106
e 64 108
e 64 119
e 64 128
e 64 130
e 64 187
e 64 202
e 64 209
e 64 216
e 64 233
e 65 67
e 65 71
e 65 73
e 65 74
e 65 86
e 65 89
e 65 97
e 65 103
e 65 106
e 65 108
e 65 113
e 65 117
e 65 121
e 65 122
e 65 126
e 65 138
e 65 169
e 65 178
e 65 187
e 65 191
e 65 194
e 65 240
e 65 241
e 65 244
e 65 246
e 66 87
e 66 104
e 66 119
e 66 124
e 66 128
e 66 146
e 66 151
e 66 156
e 66 158
e 66 181
e 66 202
e 66 220
e 67 90
e 67 99
e 67 104
e 67 107
e 67 121
e 67 124
e 67 131
e 67 143
e 67 156
e 67 158
e 67 184
e 67 186
e 67 187
e 67 191
e 67 211
e 67 223
e 67 224
e 67 227
e 67 242
e 67 248
e 68 73
e 68 82
e 68 83
e 68 91
e 68 106
e 68 112
e 68 117
e 68 125
e 68 135
e 68 139
e 68 146
e 68 178
e 68 185
e 68 246
e 69 77
e 69 85
e 69 86
e 69 91
e 69 92
e 69 95
e 69 98
e 69 115
e 69 116
e 69 117
e 69 121
e 69 122
e 69 135
e 69 141
e 69 149
e 69 157
e 69 159
e 69 161
e 69 189
e 69 191
e 69 196
e 69 204
e 69 217
e 70 77
e 70 95
e 70 109
e 70 161
e 70 183
e 70 251
e 71 82
e 71 84
e 71 87
e 71 90
e 71 94
e 71 101
e 71 104
e 71 109
e 71 119
e 71 132
e 71 137
e 71 147
e 71 152
e 71 157
e 71 160
e 71 173
e 71 190
e 71 193
e 71 209
e 71 218
e 71 236
e 72 74
e 72 77
e 72 84
e 72 89
e 72 94
e 72 95
e 72 98
e 72 99
e 72 101
e 72 121
e 72 128
e 72 140
e 72 155
e 72 172
e 72 185
e 72 202
e 72 208
e 72 213
e 72 218
e 72 220
e 72 222
e 72 234
e 72 239
e 73 76
e 73 77
e 73 93
e 73 102
e 73 105
e 73 108
e 73 123
e 73 125
e 73 126
e 73 148
e 73 152
e 73 169
e 73 177
e 73 182
e 73 183
e 73 184
e 73 203
e 73 212
e 73 214
e 73 251
e 74 96
e 74 100
e 74 122
e 74 127
e 74 130
e 74 135
e 74 138
e 74 143
e 74 146
e 74 179
e 74 192
e 74 201
e 74 202
e 74 221
e 74 226
e 74 228
e 74 229
e 75 77
e 75 84
e 75 88
e 75 92
e 75 97
e 75 103
e 75 114
e 75 129
e 75 137
e 75 142
e 75 145
e 75 155
e 75 157
e 75 164
e 75 195
e 75 231
e 75 245
e 76 78
e 76 88
e 76 93
e 76 94
e 76 110
e 76 126
e 76 154
e 76 158
e 76 193
e 76 198
e 76 209
e 76 220
e 76 225
e 76 228
e 76 232
e 76 244
e 77 94
e 77 96
e 77 103
e 77 133
e 77 134
e 77 142
e 77 152
e 77 162
e 77 169
e 77 211
e 77 218
e 77 229
e 77 230
e 77 231
e 78 83
e 78 85
e 78 87
e 78 110
e 78 132
e 78 172
e 78 186
e 78 194
e 78 197
e 78 208
e 78 209
e 79 80
e 79 81
e 79 85
e 79 87
e 79 95
e 79 103
e 79 105
e 79 110
e 79 144
e 79 181
e 79 188
e 79 240
e 80 85
e 80 86
e 80 102
e 80 108
e 80 113
e 80 120
e 80 126
e 80 131
e 80 138
e 80 143
e 80 148
e 80 151
e 80 158
e 80 195
e 80 197
e 80 224
e 80 245
e 81 95
e 81 134
e 81 138
e 81 163
e 81 187
e 81 216
e 81 225
e 82 93
e 82 101
e 82 118
e 82 127
e 82 141
e 82 144
e 82 155
e 82 157
e 82 162
e 82 166
e 82 171
e 82 174
e 82 186
e 82 202
e 82 212
e 82 227
e 82 237
e 82 247
e 83 102
e 83 107
e 83 111
e 83 112
e 83 113
e 83 116
e 83 144
e 83 150
e 83 152
e 83 159
e 83 175
e 83 204
e 83 211
e 83 219
e 83 230
e 84 112
e 84 156
e 84 157
e 84 159
e 84 165
e 84 180
e 84 197
e 84 200
e 84 202
e 84 205
e 84 245
e 85 88
e 85 112
e 85 130
e 85 133
e 85 141
e 85 143
e 85 168
e 85 175
e 85 202
e 85 213
e 85 219
e 85 226
e 86 91
e 86 95
e 86 99
e 86 101
e 86 106
e 86 123
e 86 124
e 86 129
e 86 131
e 86 136
e 86 146
e 86 167
e 86 168
e 86 177
e 86 179
e 86 209
e 87 92
e 87 114
e 87 122
e 87 130
e 87 139
e 87 143
e 87 146
e 87 152
e 87 168
e 87 194
e 87 196
e 87 198
e 87 203
e 87 229
e 87 234
e 87 235
e 88 94
e 88 100
e 88 101
e 88 107
e 88 115
e 88 118
e 88 120
e 88 125
e 88 137
e 88 170
e 88 174
e 88 176
e 88 185
e 88 191
e 88 197
e 88 200
e 88 207
e 88 217
e 88 224
e 88 230
e 88 234
e 88 246
e 88 247
e 89 90
e 89 111
e 89 117
e 89 121
e 89 147
e 89 149
e 89 156
e 89 166
e 89 169
e 89 174
e 89 175
e 89 207
e 89 228
e 89 243
e 89 248
e 90 108
e 90 132
e 90 134
e 90 138
e 90 153
e 90 162
e 90 180
e 90 191
e 90 200
e 90 221
e 90 233
e 90 240
e 91 119
e 91 151
e 91 169
e 91 174
e 91 189
e 91 229
e 92 95
e 92 109
e 92 115
e 92 119
e 92 145
e 92 155
e 92 170
e 92 191
e 92 193
e 92 197
e 92 237
e 92 238
e 93 109
e 93 133
e 93 164
e 93 172
e 93 177
e 93 181
e 93 182
e 93 196
e 93 223
e 93 225
e 93 250
e 94 97
e 94 100
e 94 107
e 94 112
e 94 115
e 94 144
e 94 146
e 94 165
e 94 175
e 94 200
e 94 225
e 94 233
e 95 96
e 95 105
e 95 111
e 95 127
e 95 128
e 95 138
e 95 140
e 95 141
e 95 142
e 95 145
e 95 149
e 95 150
e 95 155
e 95 170
e 95 171
e 95 175
e 95 179
e 95 190
e 95 193
e 95 195
e 95 201
e 95 203
e 95 213
e 95 214
e 95 232
e 95 244
e 96 98
e 96 103
e 96 125
e 96 127
e 96 132
e 96 142
e 96 154
e 96 171
e 96 231
e 96 241
e 96 250
e 97 105
e 97 140
e 97 226
e 97 245
e 97 247
e 98 117
e 98 122
e 98 123
e 98 159
e 98 165
e 98 168
e 98 212
e 98 214
e 99 101
e 99 102
e 99 105
e 99 107
e 99 127
e 99 150
e 99 161
e 99 172
e 99 191
e 99 203
e 99 206
e 99 216
e 99 240
e 100 102
e 100 123
e 100 149
e 100 158
e 100 168
e 100 170
e 100 201
e 100 231
e 100 240
e 100 247
e 101 124
e 101 132
e 101 139
e 101 145
e 101 153
e 101 171
e 101 177
e 101 215
e 101 232
e 101 250
e 102 137
e 102 158
e 102 176
e 102 184
e 102 185
e 102 235
e 102 242
e 102 249
e 103 104
e 103 130
e 103 138
e 103 158
e 103 166
e 103 169
e 103 181
e 103 200
e 103 238
e 103 241
e 104 117
e 104 120
e 104 122
e 104 127
e 104 146
e 104 162
e 104 183
e 104 187
e 104 203
e 104 232
e 104 245
e 105 114
e 105 117
e 105 118
e 105 121
e 105 136
e 105 152
e 105 161
e 105 171
e 105 182
e 105 190
e 105 229
e 105 235
e 106 110
e 106 111
e 106 141
e 106 164
e 106 165
e 106 174
e 106 176
e 106 179
e 106 185
e 106 191
e 106 217
e 106 220
e 106 221
e 106 225
e 106 227
e 106 237
e 107 108
e 107 136
e 107 150
e 107 155
e 107 156
e 107 168
e 107 172
e 107 193
e 107 212
e 107 238
e 107 243
e 108 111
e 108 136
e 108 138
e 108 162
e 108 171
e 108 196
e 108 206
e 108 220
e 108 221
e 108 226
e 108 227
e 108 231
e 108 236
e 108 247
e 108 250
e 109 115
e 109 122
e 109 127
e 109 143
e 109 172
e 109 195
e 109 215
e 109 242
e 109 248
e 110 112
e 110 153
e 110 163
e 110 183
e 110 187
e 110 196
e 110 215
e 110 216
e 110 234
e 110 240
e 111 151
e 111 163
e 111 170
e 111 207
e 111 209
e 111 210
e 111 212
e 111 213
e 111 221
e 111 223
e 111 229
e 112 121
e 112 137
e 112 138
e 112 140
e 112 150
e 112 151
e 112 154
e 112 159
e 112 179
e 112 184
e 112 251
e 113 114
e 113 117
e 113 144
e 113 153
e 113 154
e 113 160
e 113 165
e 113 166
e 113 177
e 113 192
e 113 194
e 113 197
e 113 205
e 113 207
e 113 210
e 113 214
e 113 222
e 113 249
e 114 130
e 114 144
e 114 145
e 114 203
e 114 223
e 115 116
e 115 118
e 115 124
e 115 153
e 115 165
e 115 198
e 115 206
e 115 216
e 115 244
e 115 246
e 115 248
e 116 118
e 116 119
e 116 129
e 116 143
e 116 167
e 116 171
e 116 216
e 116 240
e 116 246
e 117 201
e 117 207
e 117 225
e 117 229
e 118 135
e 118 136
e 118 190
e 118 198
e 118 205
e 118 208
e 118 242
e 119 139
e 119 172
e 119 177
e 119 242
e 120 124
e 120 126
e 120 127
e 120 157
e 120 160
e 120 161
e 120 162
e 120 165
e 120 175
e 120 176
e 120 189
e 120 190
e 120 198
e 120 215
e 120 217
e 120 219
e 120 234
e 120 241
e 120 242
e 120 243
e 121 128
e 121 133
e 121 140
e 121 173
e 121 185
e 121 186
e 121 250
e 122 125
e 122 127
e 122 148
e 122 208
e 122 211
e 122 212
e 122 217
e 122 235
e 122 240
e 122 246
e 123 137
e 123 145
e 123 147
e 123 149
e 123 161
e 123 192
e 123 199
e 123 214
e 123 215
e 123 238
e 124 160
e 124 174
e 124 178
e 124 224
e 124 225
e 124 235
e 124 236
e 125 133
e 125 134
e 125 139
e 125 152
e 125 180
e 125 183
e 125 197
e 125 218
e 125 230
e 125 251
e 126 128
e 126 147
e 126 151
e 126 152
e 126 156
e 126 157
e 126 167
e 126 179
e 126 193
e 126 199
e 126 213
e 126 214
e 126 217
e 126 230
e 126 237
e 126 243
e 127 141
e 127 156
e 127 158
e 127 170
e 127 175
e 127 178
e 127 194
e 127 204
e 127 237
e 128 219
e 128 222
e 129 149
e 129 176
e 129 182
e 129 203
e 129 222
e 129 224
e 129 236
e 130 135
e 130 139
e 130 177
e 130 218
e 130 221
e 130 228
e 131 150
e 131 153
e 132 136
e 132 147
e 132 154
e 132 158
e 132 168
e 132 179
e 132 181
e 132 200
e 132 223
e 132 236
e 132 248
e 133 150
e 133 152
e 133 159
e 133 164
e 133 182
e 133 185
e 133 194
e 133 202
e 133 223
e 133 235
e 133 242
e 134 175
e 134 177
e 134 188
e 134 191
e 134 216
e 135 148
e 135 158
e 135 160
e 135 180
e 135 235
e 135 240
e 136 182
e 136 183
e 136 185
e 136 192
e 136 228
e 136 234
e 137 153
e 137 189
e 137 205
e 137 243
e 137 251
e 138 146
e 138 192
e 138 193
e 138 237
e 139 171
e 139 209
e 139 215
e 139 228
e 139 239
e 140 189
e 140 198
e 140 214
e 140 229
e 141 143
e 141 148
e 141 170
e 141 191
e 141 221
e 141 229
e 141 233
e 142 175
e 142 186
e 142 192
e 142 193
e 142 213
e 142 232
e 142 244
e 143 165
e 143 179
e 143 204
e 143 206
e 143 210
e 143 212
e 143 238
e 144 180
e 144 206
e 145 166
e 145 195
e 145 217
e 145 227
e 145 240
e 146 151
e 146 161
e 146 168
e 146 172
e 146 182
e 146 203
e 146 239
e 146 242
e 147 154
e 147 169
e 147 170
e 147 186
e 147 187
e 147 206
e 147 222
e 147 226
e 148 151
e 148 204
e 148 211
e 148 217
e 148 228
e 149 159
e 149 213
e 149 220
e 149 232
e 149 237
e 150 152
e 150 245
e 150 248
e 151 157
e 151 184
e 151 187
e 151 195
e 151 197
e 151 221
e 151 245
e 152 156
e 152 181
e 152 191
e 152 192
e 152 202
e 152 219
e 152 221
e 152 241
e 153 154
e 153 161
e 153 184
e 153 196
e 153 198
e 153 201
e 153 213
e 153 241
e 153 246
e 154 223
e 155 204
e 155 226
e 155 229
e 156 171
e 156 180
e 156 190
e 156 196
e 156 205
e 156 228
e 157 165
e 157 187
e 157 197
e 157 199
e 157 215
e 158 167
e 158 173
e 158 174
e 158 176
e 158 188
e 158 200
e 158 208
e 159 210
e 159 224
e 160 164
e 160 178
e 160 243
e 161 170
e 161 174
e 161 199
e 161 215
e 161 222
e 161 229
e 162 180
e 162 182
e 162 191
e 162 207
e 162 210
e 162 211
e 162 218
e 162 228
e 162 232
e 163 187
e 163 188
e 163 212
e 163 251
e 164 199
e 164 222
e 164 248
e 165 173
e 165 178
e 165 203
e 166 173
e 166 178
e 166 190
e 167 184
e 167 233
e 167 234
e 168 203
e 168 207
e 168 219
e 168 248
e 169 171
e 169 220
e 170 207
e 170 243
e 171 174
e 171 178
e 172 217
e 172 238
e 173 174
e 173 196
e 173 206
e 173 244
e 174 188
e 175 180
e 175 204
e 176 178
e 176 183
e 176 194
e 176 224
e 176 234
e 176 246
e 177 196
e 177 214
e 177 233
e 178 213
e 179 238
e 180 186
e 181 239
e 181 240
e 182 232
e 182 236
e 183 188
e 183 211
e 184 205
e 184 211
e 185 201
e 185 220
e 185 228
e 186 191
e 186 232
e 186 234
e 186 239
e 186 249
e 186 250
e 188 208
e 190 208
e 190 210
e 191 192
e 192 195
e 192 216
e 193 216
e 193 239
e 195 201
e 195 205
e 195 242
e 196 222
e 197 201
e 197 243
e 198 205
e 198 215
e 198 231
e 199 232
e 199 235
e 202 206
e 202 209
e 202 224
e 202 238
e 202 241
e 203 206
e 203 208
e 203 215
e 204 221
e 204 228
e 204 235
e 207 227
e 207 230
e 208 212
e 209 225
e 209 248
e 210 222
e 210 226
e 210 249
e 211 244
e 212 214
e 212 234
e 212 246
e 213 215
e 213 249
e 214 220
e 214 222
e 214 230
e 215 228
e 215 230
e 216 229
e 219 230
e 220 227
e 221 226
e 222 251
e 223 231
e 226 236
e 231 232
e 231 233
e 233 249
e 237 238
e 239 247
e 239 249
e 241 243
e 241 251
e 245 246
